(set-info :smt-lib-version 2.6)
(set-logic QF_UFLRA)
(set-info :source |
MathSat group

|)
(set-info :category "random")
(set-info :status unsat)
(declare-fun x0 () Real)
(declare-fun x1 () Real)
(declare-fun x2 () Real)
(declare-fun x3 () Real)
(declare-fun x4 () Real)
(declare-fun x5 () Real)
(declare-fun x6 () Real)
(declare-fun x7 () Real)
(declare-fun x8 () Real)
(declare-fun x9 () Real)
(declare-fun x10 () Real)
(declare-fun x11 () Real)
(declare-fun x12 () Real)
(declare-fun x13 () Real)
(declare-fun x14 () Real)
(declare-fun x15 () Real)
(declare-fun x16 () Real)
(declare-fun x17 () Real)
(declare-fun x18 () Real)
(declare-fun x19 () Real)
(declare-fun x20 () Real)
(declare-fun x21 () Real)
(declare-fun x22 () Real)
(declare-fun x23 () Real)
(declare-fun x24 () Real)
(declare-fun x25 () Real)
(declare-fun x26 () Real)
(declare-fun x27 () Real)
(declare-fun x28 () Real)
(declare-fun x29 () Real)
(declare-fun f0_1 (Real) Real)
(declare-fun f0_2 (Real Real) Real)
(declare-fun f0_3 (Real Real Real) Real)
(declare-fun f0_4 (Real Real Real Real) Real)
(declare-fun P0 () Bool)
(declare-fun P1 () Bool)
(declare-fun P2 () Bool)
(declare-fun P3 () Bool)
(declare-fun P4 () Bool)
(declare-fun P5 () Bool)
(declare-fun P6 () Bool)
(declare-fun P7 () Bool)
(declare-fun P8 () Bool)
(declare-fun P9 () Bool)
(declare-fun P10 () Bool)
(declare-fun P11 () Bool)
(declare-fun P12 () Bool)
(declare-fun P13 () Bool)
(declare-fun P14 () Bool)
(declare-fun P15 () Bool)
(declare-fun P16 () Bool)
(declare-fun P17 () Bool)
(declare-fun P18 () Bool)
(declare-fun P19 () Bool)
(declare-fun P20 () Bool)
(declare-fun P21 () Bool)
(declare-fun P22 () Bool)
(declare-fun P23 () Bool)
(declare-fun P24 () Bool)
(declare-fun P25 () Bool)
(declare-fun P26 () Bool)
(declare-fun P27 () Bool)
(declare-fun P28 () Bool)
(declare-fun P29 () Bool)
(assert (let ((?v_30 (* 29 x11)) (?v_39 (<= (- (- (* 21 x25) (* 21 x7)) (* 35 x24)) 41)) (?v_115 (<= (- (- (* 16 x11) (* 24 x20)) (* 42 x3)) 40)) (?v_10 (* 21 x24)) (?v_122 (<= (- (+ (* 32 x18) (* 30 x1)) (* 12 x19)) 40)) (?v_68 (* 31 x5)) (?v_133 (< (+ (- (* 21 x29) (* 10 x21)) (* 14 x8)) 21)) (?v_1 (f0_1 x27)) (?v_9 (f0_1 x24))) (let ((?v_0 (distinct ?v_1 ?v_9)) (?v_85 (= (f0_1 x26) (f0_2 x20 x3))) (?v_7 (f0_1 x23))) (let ((?v_50 (= (f0_1 x22) ?v_7)) (?v_43 (distinct (f0_2 x22 x27) x23)) (?v_32 (distinct (f0_2 x0 x1) ?v_1)) (?v_62 (f0_1 x17))) (let ((?v_78 (= (f0_2 x3 x10) ?v_62)) (?v_79 (= ?v_62 (f0_2 x3 x21))) (?v_57 (distinct (f0_2 x18 x27) (f0_1 x28))) (?v_90 (distinct (f0_1 x14) (f0_1 x16))) (?v_44 (distinct (f0_2 x2 x6) x16)) (?v_2 (= (f0_1 x13) (f0_2 x0 x7))) (?v_121 (= x6 (f0_2 x27 x8))) (?v_49 (= (f0_2 x19 x0) x1)) (?v_117 (= (f0_2 x0 x3) (f0_2 x7 x19))) (?v_103 (distinct (f0_2 x28 x27) ?v_9)) (?v_18 (= x22 x29)) (?v_61 (= (f0_1 x2) x29)) (?v_65 (= (f0_1 x3) x1)) (?v_8 (= ?v_7 (f0_1 x15))) (?v_64 (= (f0_1 x6) x12)) (?v_113 (= (f0_2 x12 x18) (f0_1 x20))) (?v_56 (= (f0_2 x16 x10) x13)) (?v_140 (distinct (f0_1 x29) x14)) (?v_20 (f0_1 x5))) (let ((?v_114 (distinct x22 ?v_20)) (?v_107 (distinct x7 (f0_1 x19))) (?v_76 (= x29 x13)) (?v_52 (distinct (f0_2 x8 x7) (f0_2 x22 x28))) (?v_22 (distinct ?v_20 (f0_2 x7 x27))) (?v_14 (distinct (f0_1 x18) ?v_1)) (?v_5 (distinct (f0_2 x15 x3) (f0_2 x27 x17))) (?v_46 (not ?v_0)) (?v_37 (not ?v_64)) (?v_3 (not P19)) (?v_4 (not P17)) (?v_27 (not ?v_2)) (?v_31 (not P27)) (?v_132 (not P29)) (?v_34 (not P21)) (?v_16 (not P24)) (?v_6 (not ?v_117)) (?v_15 (not P9))) (let ((?v_60 (not ?v_5)) (?v_13 (not P13)) (?v_89 (not P10)) (?v_81 (not ?v_103)) (?v_94 (not ?v_8)) (?v_42 (not P3)) (?v_63 (not ?v_18)) (?v_71 (not ?v_121)) (?v_40 (not P25)) (?v_45 (not P11)) (?v_69 (not ?v_114)) (?v_28 (not ?v_65)) (?v_91 (not ?v_22)) (?v_53 (not ?v_32)) (?v_47 (not P26)) (?v_97 (not P23)) (?v_155 (not ?v_61)) (?v_102 (not ?v_39)) (?v_75 (not ?v_115)) (?v_84 (not P22)) (?v_55 (not P4)) (?v_143 (not ?v_56)) (?v_70 (not ?v_43)) (?v_129 (not ?v_85)) (?v_112 (not ?v_79)) (?v_95 (not P16)) (?v_86 (not ?v_57)) (?v_147 (not P12)) (?v_130 (not ?v_50)) (?v_83 (not ?v_14)) (?v_87 (not ?v_44)) (?v_92 (not P15)) (?v_137 (not P18)) (?v_146 (not P28)) (?v_98 (not ?v_133)) (?v_156 (not P6)) (?v_104 (not ?v_90)) (?v_120 (not P7)) (?v_100 (not ?v_76)) (?v_124 (not ?v_122)) (?v_111 (not P8)) (?v_141 (not P1)) (?v_119 (not P5)) (?v_127 (not P20)) (?v_142 (not P14)) (?v_158 (not P2)) (?v_138 (not ?v_113)) (?v_139 (not ?v_49)) (?v_149 (not ?v_52)) (?v_135 (not ?v_107))) (let ((?v_159 (or ?v_81 ?v_120)) (?v_152 (not P0)) (?v_157 (or ?v_85 ?v_15)) (?v_150 (not ?v_78)) (?v_154 (not ?v_140)) (?v_72 (<= (- (* 19 x29) (* 28 x11)) 20))) (let ((?v_109 (not ?v_72)) (?v_48 (< (+ (- (* (- 6) x4) (* 40 x27)) (* 11 x21)) 11)) (?v_110 (<= (+ (- (* (- 18) x13) (* 19 x6)) (* 36 x5)) 13)) (?v_19 (<= (+ (* (- 9) x18) ?v_68 (* 8 x15)) (- 43))) (?v_24 (< (- (+ (* (- 13) x4) (* 24 x25)) (* 3 x14)) 22)) (?v_148 (<= (+ (- (* 28 x14) (* 20 x13)) (* 12 x6)) (- 25)))) (let ((?v_66 (not ?v_148)) (?v_12 (< (- (+ (* 37 x6) ?v_10) (* 28 x16)) (- 23))) (?v_23 (<= (- (- (* 29 x1) (* 11 x23)) 0) (- 11))) (?v_108 (< (+ (- (* (- 29) x2) (* 18 x1)) (* 30 x20)) (- 10))) (?v_11 (< (+ (- (* (- 41) x12) (* 33 x24)) (* 38 x23)) (- 7)))) (let ((?v_80 (not ?v_11)) (?v_29 (distinct (+ (- (* (- 39) x24) (* 38 x12)) (* 34 x27)) 1)) (?v_26 (< (- (+ (* (- 21) x9) (* 18 x4)) (* 26 x28)) (- 33)))) (let ((?v_88 (not ?v_26)) (?v_17 (< (+ (- ?v_10 (* 2 x1)) (* 31 x27)) (- 30))) (?v_160 (or ?v_94 ?v_11))) (let ((?v_21 (not ?v_17)) (?v_106 (< (+ (* (- 29) x9) (* 41 x21) (* 26 x25)) 32))) (let ((?v_67 (not ?v_106)) (?v_25 (< (+ (- (* (- 7) x29) (* 36 x27)) ?v_30) 10))) (let ((?v_58 (not ?v_25)) (?v_36 (not ?v_23)) (?v_99 (< (+ (* (- 31) x22) (* 25 x16) ?v_30) (- 11))) (?v_33 (<= (- (- (* 6 x6) (* 28 x5)) (* 4 x24)) (- 6))) (?v_35 (<= (+ (- (* (- 2) x16) 0) (* 14 x27)) 37))) (let ((?v_38 (not ?v_33)) (?v_126 (< (- (- (* (- 8) x1) (* 8 x1)) (* 42 x2)) 44))) (let ((?v_59 (not ?v_126)) (?v_93 (not ?v_35)) (?v_51 (< (- (* (- 1) x8) (* 5 x5)) (- 11))) (?v_123 (< (+ (* (- 12) x28) (* 7 x9) (* 9 x1)) (- 39)))) (let ((?v_151 (not ?v_123)) (?v_41 (< (- (- (* (- 37) x15) (* 38 x8)) (* 40 x20)) 23))) (let ((?v_96 (not ?v_41)) (?v_77 (not ?v_29)) (?v_105 (< (+ (* 4 x22) (* 9 x3) (* 3 x21)) (- 21)))) (let ((?v_82 (not ?v_105)) (?v_54 (not ?v_51)) (?v_131 (not ?v_12)) (?v_73 (<= (- (- (* 17 x26) (* 2 x8)) (* 29 x22)) (- 22))) (?v_116 (<= (+ (- x12 (* 26 x12)) (* 34 x10)) (- 41)))) (let ((?v_101 (not ?v_116)) (?v_74 (= (+ (- (* (- 34) x16) (* 9 x13)) ?v_68) (- 5)))) (let ((?v_136 (not ?v_74)) (?v_125 (not ?v_48)) (?v_118 (not ?v_99)) (?v_134 (not ?v_73)) (?v_128 (not ?v_108)) (?v_145 (not ?v_110)) (?v_144 (not ?v_24)) (?v_153 (not ?v_19))) (and (and (and (and (and (and (and (and (and (and (and (and (and (and (and (and (and (and (and (and (and (and (and (and (and (and (and (and (and (and (and (and (and (and (and (and (and (and (and (and (and (and (and (and (and (and (and (and (and (and (and (and (and (and (and (and (and (and (and (and (and (and (and (and (and (and (and (and (and (and (and (and (and (and (and (and (and (and (and (and (and (and (and (and (and (and (and (and (and (and (and (and (and (and (and (and (and (and (and (and (and (and (and (and (and (and (and (and (and (and (and (and (and (and (and (and (and (and (and (and (and (and (and (and (and (and (and (and (and (and (and (and (and (and (and (and (and (and (and (and (and (and (and (and (and (and (and (and (and (and (and (and (and (and (and (and (and (and (and (and (and (and (and (and (and (and (and (and (and (and (and (and (and (and (and (and (and (and (and (and (and (and (and (and (and (and (and (and (and (and (and (and (and (and (and (and (and (and (and (and (and (and (and (and (and (and (and (and (and (and (and (and (and (and (and (and (and (and (and (and (and (and (and (and (and (and (and (and (and (and (and (and (and (and (and (and (and (and (and (and (and (and (and (and (and (and (and (and (and (and (and (and (and (and (and (and (and (and (and (and (and (and (and (and (and (and (and (and (and (and (and (and (and (and (and (and (and (and (and (and (and (and (and (and (and (and (and (and (and (and (and (and (and (and (and (and (and (and (and (and (and (and (and (and (and (and (and (and (and (and (and (and (and (and (and (and (and (and (and (and (and (and (and (and (and (and (and (and (and (and (and (and (and (and (and (and (and (and (and (and (and (and (and (and (and (and (and (and (and (and (and (and (and (and (and (and (and (and (and (and (and (and (and (and (and (and (and (and (and (and (and (and (and (and (and (and (and (and (and (and (and (and (and (and (and (and (and (and (and (and (and (and (and (and (and (and (and (and (and (and (and (and (and (and (and (and (and (and (and (and (and (and (and (and (and (and (and (and (and (and (and (and (and (and (and (and (and (and (and (and (and (and (and (and (and (and (and (and (and (and (and (and (and (and (and (and (and (and (and (or (or ?v_109 P4) ?v_5) (or (or ?v_0 ?v_48) P18)) (or (or ?v_46 ?v_37) ?v_110)) (or (or ?v_3 ?v_2) ?v_14)) (or (or P5 ?v_4) ?v_49)) (or (or ?v_8 P22) ?v_19)) (or (or ?v_27 ?v_3) ?v_24)) (or (or ?v_66 P3) ?v_12)) (or (or ?v_23 ?v_4) ?v_140)) (or (or ?v_31 ?v_44) ?v_132)) (or (or ?v_3 P10) ?v_34)) (or (or ?v_16 ?v_3) ?v_6)) (or (or ?v_108 ?v_15) ?v_80)) (or (or ?v_60 ?v_39) ?v_13)) (or (or ?v_6 ?v_89) ?v_50)) (or (or ?v_29 ?v_8) ?v_88)) (or (or ?v_81 P17) ?v_17)) (or ?v_160 ?v_12)) (or (or ?v_13 ?v_14) ?v_18)) (or (or ?v_43 ?v_15) ?v_12)) (or (or ?v_16 ?v_21) P6)) (or (or ?v_42 ?v_63) ?v_71)) (or (or ?v_13 P23) ?v_11)) (or (or ?v_40 ?v_22) ?v_45)) (or (or P1 ?v_19) ?v_69)) (or (or ?v_67 ?v_16) ?v_58)) (or (or ?v_21 ?v_28) ?v_91)) (or (or ?v_36 ?v_53) ?v_24)) (or (or ?v_25 ?v_26) P24)) (or (or ?v_27 ?v_28) ?v_29)) (or (or ?v_99 ?v_31) ?v_33)) (or (or ?v_16 ?v_90) ?v_32)) (or (or P4 ?v_35) ?v_38)) (or (or ?v_47 P29) ?v_59)) (or (or P21 ?v_34) ?v_93)) (or (or ?v_36 ?v_6) ?v_37)) (or (or ?v_97 ?v_38) P18)) (or (or ?v_51 ?v_52) P29)) (or (or ?v_2 ?v_151) ?v_155)) (or (or P12 ?v_102) ?v_96)) (or (or ?v_40 ?v_24) P2)) (or (or ?v_41 P19) ?v_77)) (or (or ?v_42 ?v_26) ?v_21)) (or (or ?v_4 P19) ?v_43)) (or (or ?v_44 ?v_45) ?v_18)) (or (or P4 ?v_34) ?v_75)) (or (or ?v_84 ?v_55) ?v_46)) (or (or ?v_47 P13) ?v_44)) (or (or ?v_143 ?v_70) ?v_48)) (or (or ?v_129 ?v_12) ?v_82)) (or (or ?v_19 ?v_49) ?v_50)) (or (or P13 P29) ?v_54)) (or (or P9 ?v_52) ?v_53)) (or (or ?v_131 ?v_112) ?v_95)) (or (or ?v_54 ?v_73) ?v_55)) (or (or ?v_101 ?v_56) ?v_52)) (or (or ?v_49 P20) ?v_19)) (or (or P3 ?v_48) ?v_27)) (or (or ?v_57 ?v_3) ?v_2)) (or (or ?v_37 ?v_86) ?v_58)) (or (or ?v_59 ?v_39) ?v_60)) (or (or ?v_61 ?v_78) ?v_63)) (or (or ?v_16 ?v_31) ?v_58)) (or (or ?v_147 ?v_64) P5)) (or (or ?v_65 ?v_66) ?v_33)) (or (or ?v_17 ?v_67) ?v_52)) (or (or P25 ?v_42) ?v_74)) (or (or ?v_49 ?v_5) ?v_69)) (or (or ?v_70 ?v_76) ?v_46)) (or (or ?v_4 ?v_71) P5)) (or (or ?v_130 ?v_72) ?v_73)) (or (or ?v_74 ?v_8) ?v_75)) (or (or ?v_83 P10) ?v_76)) (or (or ?v_0 P10) ?v_77)) (or (or ?v_31 ?v_13) ?v_11)) (or (or ?v_78 ?v_55) ?v_79)) (or (or ?v_80 ?v_136) ?v_87)) (or (or ?v_81 ?v_34) ?v_82)) (or (or ?v_79 ?v_5) P7)) (or (or ?v_83 ?v_84) ?v_92)) (or (or P28 ?v_22) P1)) (or (or ?v_85 ?v_27) ?v_31)) (or (or ?v_21 P27) ?v_86)) (or (or P4 P22) ?v_87)) (or (or ?v_0 ?v_78) ?v_19)) (or (or ?v_137 ?v_35) ?v_146)) (or (or ?v_22 ?v_88) ?v_49)) (or (or ?v_19 ?v_98) ?v_156)) (or (or ?v_89 ?v_125) ?v_29)) (or (or ?v_80 ?v_90) ?v_4)) (or (or ?v_91 P16) ?v_104)) (or (or ?v_35 ?v_54) ?v_70)) (or (or ?v_29 ?v_15) ?v_5)) (or (or ?v_54 ?v_19) ?v_27)) (or (or P15 P20) ?v_64)) (or (or ?v_31 ?v_36) ?v_120)) (or (or P4 ?v_45) ?v_92)) (or (or ?v_93 ?v_47) ?v_52)) (or (or ?v_53 P11) ?v_85)) (or (or ?v_94 ?v_95) ?v_69)) (or (or ?v_85 ?v_96) ?v_16)) (or (or ?v_97 ?v_48) ?v_91)) (or (or ?v_25 ?v_0) ?v_72)) (or (or ?v_96 ?v_98) P22)) (or (or P11 ?v_118) ?v_100)) (or (or ?v_4 ?v_59) ?v_22)) (or (or ?v_60 ?v_11) ?v_50)) (or (or ?v_100 ?v_6) P25)) (or (or ?v_64 ?v_87) ?v_23)) (or (or ?v_6 ?v_70) ?v_38)) (or (or P29 ?v_134) P13)) (or (or ?v_74 ?v_90) ?v_101)) (or (or ?v_102 ?v_33) ?v_103)) (or (or ?v_45 ?v_104) ?v_46)) (or (or P10 ?v_31) ?v_74)) (or (or ?v_67 ?v_124) ?v_107)) (or (or ?v_74 ?v_101) ?v_111)) (or (or ?v_17 P22) ?v_3)) (or (or ?v_105 ?v_87) ?v_101)) (or (or ?v_87 ?v_34) ?v_106)) (or (or P7 P22) ?v_21)) (or (or ?v_107 ?v_99) ?v_94)) (or (or ?v_38 P15) ?v_113)) (or (or ?v_3 ?v_97) ?v_101)) (or (or ?v_51 ?v_25) ?v_28)) (or (or ?v_108 ?v_106) ?v_29)) (or (or ?v_82 ?v_69) ?v_47)) (or (or ?v_109 ?v_53) ?v_84)) (or (or P1 ?v_110) ?v_111)) (or (or ?v_141 ?v_15) ?v_3)) (or (or ?v_112 ?v_32) ?v_87)) (or (or ?v_103 ?v_109) P24)) (or (or ?v_119 P5) ?v_17)) (or (or P0 ?v_93) P14)) (or (or P26 P12) ?v_86)) (or (or ?v_77 ?v_113) P25)) (or (or P14 ?v_114) ?v_3)) (or (or ?v_115 P17) ?v_44)) (or (or ?v_102 ?v_69) P13)) (or (or ?v_58 ?v_4) P24)) (or (or ?v_40 ?v_116) ?v_117)) (or (or P19 P7) P20)) (or (or ?v_118 ?v_27) ?v_94)) (or (or ?v_67 ?v_98) P29)) (or (or ?v_56 ?v_87) ?v_65)) (or (or P7 ?v_24) ?v_37)) (or (or ?v_119 ?v_120) ?v_121)) (or (or ?v_15 ?v_37) ?v_28)) (or (or ?v_127 P5) ?v_6)) (or (or P14 ?v_46) P4)) (or (or P7 ?v_122) ?v_67)) (or (or ?v_123 ?v_52) ?v_104)) (or (or ?v_118 ?v_37) ?v_17)) (or (or ?v_91 ?v_50) ?v_65)) (or (or ?v_19 P27) ?v_97)) (or (or ?v_66 ?v_142) ?v_38)) (or (or ?v_44 ?v_109) P19)) (or (or P27 ?v_124) ?v_83)) (or (or ?v_110 ?v_91) ?v_53)) (or (or ?v_73 ?v_23) ?v_19)) (or (or ?v_158 ?v_119) P3)) (or (or ?v_93 P4) ?v_128)) (or (or P25 ?v_83) P17)) (or (or ?v_125 P27) P29)) (or (or ?v_119 ?v_53) ?v_126)) (or (or P26 ?v_50) ?v_106)) (or (or ?v_2 ?v_71) ?v_95)) (or (or ?v_76 ?v_75) ?v_65)) (or (or ?v_52 P21) ?v_91)) (or (or P3 ?v_34) ?v_86)) (or (or P14 ?v_22) ?v_114)) (or (or ?v_93 ?v_73) ?v_127)) (or (or P14 ?v_6) ?v_74)) (or (or ?v_124 ?v_0) ?v_98)) (or (or ?v_122 ?v_56) ?v_128)) (or (or ?v_80 ?v_129) P15)) (or (or ?v_72 ?v_71) ?v_130)) (or (or ?v_73 P16) ?v_8)) (or (or ?v_112 ?v_107) ?v_26)) (or (or ?v_89 ?v_11) ?v_70)) (or (or ?v_116 ?v_60) ?v_66)) (or (or ?v_131 ?v_46) ?v_43)) (or (or ?v_138 ?v_42) ?v_132)) (or (or ?v_114 ?v_110) ?v_97)) (or (or ?v_59 ?v_32) ?v_133)) (or (or ?v_83 ?v_96) ?v_109)) (or (or ?v_74 ?v_2) ?v_139)) (or (or ?v_23 P7) ?v_131)) (or (or ?v_38 ?v_67) ?v_125)) (or (or P16 ?v_17) P5)) (or (or ?v_49 ?v_16) P22)) (or (or ?v_74 ?v_34) ?v_61)) (or (or ?v_149 ?v_84) ?v_135)) (or (or ?v_65 ?v_80) ?v_134)) (or (or P22 ?v_100) ?v_95)) (or ?v_159 ?v_135)) (or (or ?v_73 ?v_56) ?v_122)) (or (or ?v_136 ?v_78) ?v_152)) (or (or P19 P10) ?v_116)) (or (or ?v_102 ?v_54) P0)) (or (or ?v_75 ?v_18) ?v_26)) (or (or ?v_84 ?v_137) ?v_0)) (or (or ?v_88 ?v_110) ?v_73)) (or (or ?v_85 ?v_128) P0)) (or (or ?v_70 ?v_138) ?v_23)) (or ?v_157 P14)) (or (or ?v_50 ?v_119) ?v_16)) (or (or ?v_17 ?v_56) ?v_28)) (or (or P20 ?v_79) ?v_36)) (or (or ?v_106 ?v_70) ?v_99)) (or (or ?v_135 ?v_21) ?v_92)) (or (or ?v_89 ?v_90) ?v_139)) (or (or ?v_95 ?v_145) ?v_61)) (or (or ?v_48 ?v_64) ?v_91)) (or (or ?v_83 ?v_123) ?v_53)) (or (or P20 ?v_26) P15)) (or (or ?v_89 ?v_29) ?v_58)) (or (or ?v_65 ?v_134) ?v_57)) (or (or ?v_140 ?v_88) ?v_107)) (or (or ?v_141 P2) ?v_75)) (or (or ?v_97 ?v_115) ?v_132)) (or (or ?v_135 ?v_58) ?v_84)) (or (or ?v_47 ?v_18) ?v_150)) (or (or ?v_16 ?v_73) ?v_24)) (or (or P13 ?v_77) ?v_21)) (or (or ?v_55 ?v_100) P1)) (or (or P29 ?v_41) ?v_83)) (or (or ?v_32 ?v_11) ?v_129)) (or (or P14 ?v_74) ?v_103)) (or (or ?v_42 ?v_75) ?v_34)) (or (or ?v_99 ?v_142) ?v_138)) (or (or P23 ?v_86) ?v_0)) (or (or ?v_142 P18) ?v_100)) (or (or ?v_27 ?v_123) ?v_73)) (or (or ?v_92 ?v_143) ?v_134)) (or (or ?v_106 ?v_100) ?v_63)) (or (or ?v_144 ?v_144) ?v_37)) (or (or ?v_109 ?v_125) ?v_44)) (or (or P29 ?v_35) P13)) (or (or ?v_141 ?v_104) P6)) (or (or ?v_19 ?v_83) ?v_115)) (or (or ?v_59 ?v_141) ?v_122)) (or (or ?v_78 ?v_105) P17)) (or (or ?v_145 ?v_56) ?v_146)) (or (or ?v_48 ?v_16) P13)) (or (or ?v_8 P8) ?v_126)) (or (or ?v_59 ?v_73) ?v_35)) (or (or ?v_83 ?v_78) ?v_154)) (or (or ?v_70 ?v_106) ?v_11)) (or (or P21 ?v_139) ?v_35)) (or (or ?v_109 ?v_96) ?v_46)) (or (or P27 ?v_153) ?v_85)) (or (or ?v_36 ?v_52) ?v_28)) (or (or ?v_77 ?v_51) ?v_139)) (or (or ?v_0 ?v_147) ?v_91)) (or (or ?v_100 ?v_120) P8)) (or (or ?v_118 ?v_148) ?v_22)) (or (or ?v_119 ?v_14) ?v_105)) (or (or ?v_13 ?v_74) ?v_139)) (or (or ?v_61 ?v_15) ?v_51)) (or (or ?v_107 ?v_123) ?v_53)) (or (or ?v_149 ?v_61) ?v_101)) (or (or P2 P17) ?v_63)) (or (or ?v_118 ?v_34) ?v_116)) (or (or ?v_79 ?v_16) ?v_144)) (or (or ?v_150 ?v_120) ?v_142)) (or (or ?v_89 ?v_54) ?v_24)) (or (or P18 ?v_148) ?v_67)) (or (or ?v_116 ?v_24) ?v_55)) (or (or ?v_136 P11) ?v_146)) (or (or ?v_114 ?v_51) ?v_98)) (or (or ?v_131 ?v_16) ?v_105)) (or (or ?v_70 P27) P29)) (or (or P9 ?v_14) ?v_89)) (or (or ?v_3 ?v_149) ?v_57)) (or (or P26 ?v_146) ?v_109)) (or (or P23 ?v_59) ?v_28)) (or (or ?v_121 ?v_136) ?v_55)) (or (or P1 ?v_108) ?v_127)) (or (or ?v_103 P4) ?v_36)) (or (or ?v_132 ?v_61) ?v_87)) (or (or ?v_128 P26) ?v_99)) (or (or ?v_36 ?v_32) ?v_60)) (or (or ?v_76 ?v_51) ?v_69)) (or (or ?v_19 ?v_151) ?v_141)) (or (or P7 ?v_11) ?v_131)) (or (or ?v_93 ?v_51) P23)) (or (or ?v_119 ?v_89) ?v_35)) (or (or ?v_27 ?v_27) ?v_25)) (or (or P5 P10) ?v_109)) (or (or ?v_18 ?v_99) ?v_36)) (or (or ?v_89 ?v_45) ?v_13)) (or (or ?v_23 ?v_61) ?v_71)) (or (or ?v_59 P12) ?v_152)) (or (or ?v_117 ?v_77) ?v_38)) (or (or ?v_153 ?v_2) ?v_111)) (or (or ?v_91 ?v_118) ?v_130)) (or (or ?v_12 ?v_73) ?v_19)) (or (or ?v_103 ?v_60) ?v_66)) (or (or ?v_136 ?v_28) ?v_139)) (or (or ?v_46 ?v_56) ?v_74)) (or (or ?v_113 ?v_26) P15)) (or (or ?v_28 ?v_51) P2)) (or (or ?v_96 ?v_5) ?v_106)) (or (or ?v_50 P18) ?v_151)) (or (or ?v_55 ?v_142) ?v_154)) (or (or P21 P1) P3)) (or (or ?v_71 ?v_2) ?v_130)) (or (or ?v_120 ?v_117) ?v_45)) (or (or ?v_35 ?v_13) ?v_144)) (or (or ?v_113 ?v_74) ?v_54)) (or (or ?v_95 ?v_47) ?v_4)) (or (or ?v_107 ?v_93) ?v_125)) (or (or ?v_71 P11) ?v_43)) (or (or ?v_124 ?v_103) ?v_77)) (or (or ?v_40 ?v_85) ?v_125)) (or (or ?v_145 ?v_82) ?v_148)) (or (or ?v_11 ?v_98) ?v_132)) (or (or P6 ?v_40) ?v_155)) (or (or ?v_2 ?v_107) ?v_49)) (or (or ?v_74 ?v_100) ?v_82)) (or (or ?v_103 ?v_22) P16)) (or (or ?v_148 P2) P14)) (or (or P2 ?v_119) ?v_97)) (or (or ?v_98 ?v_99) ?v_113)) (or (or ?v_57 ?v_73) ?v_135)) (or (or P8 P11) ?v_135)) (or (or P29 ?v_43) ?v_15)) (or (or ?v_2 ?v_73) P21)) (or (or ?v_2 ?v_23) ?v_28)) (or (or ?v_69 ?v_67) ?v_98)) (or (or P24 ?v_96) ?v_112)) (or (or ?v_75 ?v_42) P13)) (or (or ?v_122 ?v_78) ?v_24)) (or (or ?v_75 P15) ?v_104)) (or (or P20 ?v_15) P0)) (or (or P14 ?v_77) ?v_44)) (or (or ?v_86 ?v_6) ?v_61)) (or (or P10 ?v_79) ?v_102)) (or (or ?v_27 P10) P12)) (or (or ?v_105 ?v_55) ?v_119)) (or (or ?v_108 P4) ?v_23)) (or (or P29 ?v_154) ?v_8)) (or (or ?v_147 ?v_113) ?v_3)) (or (or P23 ?v_50) ?v_125)) (or (or ?v_130 ?v_26) ?v_146)) (or (or ?v_25 P16) ?v_141)) (or (or ?v_130 ?v_28) ?v_98)) (or (or ?v_118 ?v_143) P29)) (or (or ?v_95 ?v_17) ?v_76)) (or (or ?v_12 ?v_156) P22)) (or ?v_157 ?v_32)) (or (or P29 ?v_17) ?v_27)) (or (or ?v_95 ?v_41) ?v_2)) (or (or ?v_34 ?v_41) ?v_139)) (or (or ?v_43 ?v_128) ?v_50)) (or (or ?v_35 ?v_60) ?v_2)) (or (or ?v_56 P6) ?v_158)) (or (or ?v_43 ?v_117) ?v_92)) (or (or P25 ?v_51) ?v_153)) (or (or ?v_55 ?v_158) ?v_151)) (or (or ?v_31 ?v_96) ?v_139)) (or (or ?v_117 ?v_156) ?v_136)) (or (or ?v_130 ?v_57) ?v_5)) (or (or ?v_64 ?v_37) ?v_47)) (or (or ?v_141 P18) P0)) (or (or P12 P8) P22)) (or (or ?v_121 ?v_11) ?v_94)) (or (or ?v_125 ?v_48) ?v_91)) (or (or ?v_90 ?v_87) ?v_39)) (or (or ?v_150 ?v_147) ?v_93)) (or (or ?v_129 ?v_72) ?v_34)) (or (or ?v_142 ?v_4) P22)) (or (or ?v_59 ?v_81) ?v_122)) (or (or ?v_101 ?v_154) ?v_18)) (or (or P29 ?v_129) P3)) (or (or P14 ?v_131) ?v_18)) (or (or ?v_31 ?v_3) ?v_14)) (or (or ?v_0 P8) ?v_16)) (or (or ?v_74 ?v_11) P26)) (or (or ?v_114 ?v_32) ?v_105)) (or (or P7 ?v_39) ?v_3)) (or ?v_159 ?v_129)) (or (or ?v_69 ?v_113) P14)) (or (or ?v_65 ?v_143) ?v_0)) (or (or ?v_143 ?v_66) P29)) (or (or ?v_117 ?v_59) ?v_140)) (or (or ?v_39 ?v_55) ?v_103)) (or (or ?v_132 ?v_37) ?v_154)) (or (or ?v_105 ?v_91) ?v_31)) (or (or ?v_120 ?v_38) P15)) (or (or P13 ?v_61) ?v_73)) (or (or ?v_41 ?v_137) ?v_98)) (or (or ?v_15 ?v_6) P2)) (or (or ?v_28 ?v_43) ?v_106)) (or (or ?v_6 ?v_64) ?v_67)) (or (or P26 P24) ?v_93)) (or (or ?v_152 ?v_44) ?v_91)) (or (or ?v_48 ?v_6) ?v_78)) (or (or ?v_100 ?v_25) P0)) (or (or ?v_131 ?v_52) ?v_37)) (or (or ?v_58 ?v_52) P29)) (or (or ?v_38 ?v_44) P19)) (or (or ?v_35 P5) ?v_110)) (or (or ?v_41 P18) ?v_117)) (or (or ?v_145 ?v_127) ?v_33)) (or (or ?v_145 ?v_12) P9)) (or (or ?v_149 ?v_52) ?v_124)) (or (or ?v_69 ?v_32) ?v_153)) (or (or P16 ?v_95) ?v_15)) (or (or ?v_106 P7) ?v_141)) (or (or ?v_37 ?v_124) ?v_70)) (or (or ?v_8 ?v_52) P19)) (or (or ?v_85 ?v_53) ?v_106)) (or (or P5 ?v_153) ?v_63)) (or (or ?v_60 P20) ?v_144)) (or (or ?v_29 ?v_127) ?v_107)) (or ?v_160 ?v_146)) (or (or ?v_35 ?v_135) ?v_130)) (or (or ?v_48 P11) ?v_71)) (or (or ?v_50 P22) ?v_23)) (or (or ?v_78 ?v_115) ?v_42)) (or (or P17 ?v_98) ?v_129)) (or (or ?v_91 ?v_149) P1)) (or (or ?v_102 ?v_67) ?v_17)) (or (or ?v_132 ?v_147) ?v_70)) (or (or ?v_124 ?v_5) ?v_27)) (or (or ?v_42 ?v_118) P1)) (or (or ?v_26 ?v_93) ?v_106)) (or (or ?v_121 ?v_94) ?v_153)) (or (or ?v_107 ?v_102) P20)) (or (or ?v_89 ?v_3) P16)) (or (or P12 ?v_29) ?v_99)) (or (or ?v_29 P29) ?v_121)) (or (or ?v_67 ?v_115) ?v_28)) (or (or ?v_96 ?v_0) ?v_86)) (or (or ?v_28 ?v_27) ?v_94)) (or (or ?v_85 P2) ?v_38)) (or (or ?v_4 ?v_100) ?v_91)) (or (or P27 ?v_138) ?v_77)) (or (or P7 ?v_111) ?v_78)) (or (or ?v_81 P22) ?v_124)) (or (or ?v_117 ?v_112) ?v_66)) (or (or ?v_79 ?v_122) ?v_138)) (or (or ?v_118 ?v_46) ?v_66)) (or (or P13 P20) ?v_19)) (or (or ?v_117 ?v_83) ?v_119)) (or (or ?v_51 ?v_113) ?v_129)) (or (or ?v_35 ?v_51) ?v_17)) (or (or ?v_125 P3) ?v_139))))))))))))))))))))))))
(check-sat)
(exit)
